HUN,8,6,106
0,22,2,22,3,24,1,28,4,28,5,21
4,27,0,21,1,30,3,26,2,27,5,29
1,21,3,22,5,25,0,25,4,26,2,27
0,22,2,27,5,30,1,28,3,30,4,28
4,21,1,27,2,29,3,26,5,26,0,27
2,23,3,27,4,24,0,27,1,21,5,25
3,21,0,21,2,28,4,30,5,26,1,21
3,27,4,30,1,26,0,29,5,21,2,21
